09-routing/solutions/XSH-n20-k4-01.opt.sol
Route #1: 15 2 18 1 8
Route #2: 10 11 7 9 6
Route #3: 17 4 5 19 3
Route #4: 20 12 13 14 16
Cost 646
